0 2009
1 2009
2 1845
3 1836
4 1808
5 1725
6 1725
7 1605
8 1605
9 1582
10 1509
11 1509
12 1509
13 1509
14 1425
15 1425
16 1420
17 1394
18 1394
19 1394
20 1369
21 1369
22 1369
23 1318
24 1318
25 1318
26 1318
27 1318
28 1318
29 1318
30 1318
31 1316
32 1309
33 1307
34 1307
35 1280
36 1280
37 1280
38 1280
39 1280
40 1280
41 1280
42 1280
43 1280
44 1241
45 1241
46 1241
47 1241
48 1241
49 1241
50 1241
51 1241
52 1241
53 1240
54 1239
55 1239
56 1220
57 1220
58 1220
59 1220
60 1220
61 1220
62 1215
63 1215
64 1215
65 1215
66 1215
67 1215
68 1215
69 1215
70 1215
71 1215
72 1215
73 1213
74 1209
75 1206
76 1206
77 1149
78 1149
79 1143
80 1143
81 1143
82 1143
83 1143
84 1143
85 1143
86 1143
87 1143
88 1143
89 1143
90 1143
91 1143
92 1143
93 1143
94 1143
95 1143
96 1143
97 1143
98 1143
99 1143
100 1137
101 1137
102 1137
103 1137
104 1137
105 1137
106 1090
107 1090
108 1090
109 1090
110 1090
111 1090
112 1090
113 1090
114 1090
115 1090
116 1090
117 1090
118 1090
119 1090
120 1089
121 1089
122 1089
123 1089
124 1089
125 1089
126 1089
127 1089
128 1089
129 1089
130 1089
131 1089
132 1089
133 1089
134 1089
135 1089
136 1089
137 1089
138 1089
139 1089
140 1089
141 1089
142 1089
143 1089
144 1089
145 1089
146 1089
147 1089
148 1089
149 1089
150 1080
151 1080
152 1080
153 1080
154 1080
155 1080
156 1080
157 1080
158 1048
159 1048
160 1048
161 1048
162 1048
163 1048
164 1048
165 1048
166 1047
167 1044
168 1037
169 1026
170 1022
171 1022
172 1022
173 1022
174 1022
175 1022
176 1021
177 1021
178 1021
179 1021
180 1021
181 1021
182 1021
183 1021
184 1021
185 1021
186 1017
187 1015
188 1015
189 1015
190 1015
191 1015
192 1015
193 1007
194 1007
195 1007
196 1007
197 1007
198 1007
199 1007
200 1007
201 1007
202 1007
203 1007
204 1007
205 1002
206 1002
207 1002
208 1002
209 1002
210 1002
211 1002
212 1002
213 1002
214 1002
215 1002
216 1002
217 1002
218 1002
219 1002
220 1002
221 1002
222 1002
223 1002
224 1002
225 1002
226 1002
227 1002
228 1002
229 1002
230 1002
231 1002
232 1002
233 1002
234 1002
235 1002
236 1002
237 1002
238 1002
239 1002
240 1002
241 1002
242 1002
243 1002
244 1002
245 1002
246 1002
247 1002
248 1002
249 1002
250 1002
251 1001
252 1001
253 1001
254 1001
255 1001
256 1001
257 1001
258 1001
259 1001
260 1001
261 1001
262 1001
263 1001
264 997
265 997
266 997
267 997
268 997
269 993
270 993
271 993
272 986
273 986
274 986
275 969
276 969
277 969
278 969
279 969
280 969
281 969
282 969
283 969
284 969
285 969
286 969
287 969
288 969
289 969
290 969
291 969
292 969
293 969
294 969
295 969
296 969
297 969
298 969
299 969
300 969
301 969
302 969
303 969
304 969
305 969
306 965
307 965
308 965
309 965
310 965
311 965
312 965
313 965
314 965
315 965
316 965
317 965
318 965
319 965
320 965
321 965
322 965
323 965
324 965
325 965
326 965
327 965
328 965
329 965
330 965
331 965
332 965
333 965
334 965
335 965
336 965
337 965
338 965
339 965
340 965
341 965
342 965
343 965
344 965
345 965
346 965
347 965
348 965
349 965
350 965
351 965
352 965
353 965
354 965
355 965
356 965
357 965
358 965
359 965
360 965
361 965
362 965
363 965
364 965
365 965
366 965
367 965
368 965
369 965
370 965
371 965
372 965
373 965
374 965
375 965
376 965
377 965
378 965
379 965
380 965
381 965
382 965
383 965
384 965
385 965
386 965
387 965
388 965
389 965
390 965
391 965
392 965
393 965
394 965
395 965
396 965
397 965
398 965
399 965
400 965
401 965
402 965
403 965
404 965
405 965
406 965
407 965
408 965
409 965
410 965
411 965
412 965
413 965
414 965
415 965
416 965
417 965
418 965
419 965
420 965
421 965
422 965
423 965
424 965
425 965
426 965
427 965
428 965
429 965
430 965
431 965
432 965
433 965
434 965
435 965
436 965
437 965
438 965
439 965
440 965
441 965
442 965
443 965
444 965
445 965
446 965
447 965
448 965
449 965
450 965
451 965
452 965
453 965
454 965
455 965
456 965
457 965
458 965
459 965
460 965
461 965
462 965
463 965
464 965
465 965
466 965
467 965
468 965
469 965
470 965
471 965
472 965
473 965
474 965
475 965
476 965
477 965
478 965
479 965
480 965
481 965
482 965
483 965
484 965
485 965
486 965
487 965
488 965
489 965
490 965
491 965
492 965
493 965
494 965
495 965
496 965
497 965
498 965
499 965
500 965
501 965
502 965
503 965
504 965
505 965
506 965
507 965
508 965
509 965
510 965
511 965
512 965
513 965
514 965
515 965
516 965
517 965
518 965
519 965
520 965
521 965
522 965
523 965
524 965
525 965
526 965
527 965
528 965
529 965
530 965
531 965
532 965
533 965
534 965
535 965
536 965
537 965
538 965
539 965
540 965
541 965
542 965
543 965
544 965
545 965
546 965
547 965
548 965
549 965
550 965
551 965
552 965
553 965
554 965
555 965
556 965
557 965
558 965
559 965
560 965
561 965
562 965
563 965
564 965
565 965
566 965
567 965
568 965
569 965
570 965
571 965
572 965
573 965
574 965
575 965
576 965
577 965
578 965
579 965
580 965
581 965
582 965
583 965
584 965
585 965
586 965
587 965
588 965
589 965
590 965
591 965
592 965
593 965
594 965
595 965
596 965
597 965
598 965
599 965
600 965
601 965
602 965
603 965
604 965
605 965
606 965
607 965
608 965
609 965
610 965
611 965
612 965
613 965
614 965
615 965
616 965
617 965
618 965
619 965
620 965
621 965
622 965
623 965
624 965
625 965
626 965
627 965
628 965
629 965
630 965
631 965
632 965
633 965
634 965
635 965
636 965
637 965
638 965
639 965
640 965
641 965
642 965
643 965
644 965
645 965
646 965
647 965
648 965
649 965
650 965
651 965
652 965
653 965
654 965
655 965
656 965
657 965
658 965
659 965
660 965
661 965
662 965
663 965
664 965
665 965
666 965
667 965
668 965
669 965
670 965
671 965
672 965
673 965
674 965
675 965
676 965
677 965
678 965
679 965
680 965
681 965
682 965
683 965
684 965
685 965
686 965
687 965
688 965
689 965
690 965
691 965
692 965
693 965
694 965
695 965
696 965
697 965
698 965
699 965
700 965
701 965
702 965
703 965
704 965
705 965
706 965
707 965
708 965
709 965
710 965
711 965
712 965
713 965
714 965
715 965
716 965
717 965
718 965
719 965
720 965
721 965
722 965
723 965
724 965
725 965
726 965
727 965
728 965
729 965
730 965
731 965
732 965
733 965
734 965
735 965
736 965
737 965
738 965
739 965
740 965
741 965
742 965
743 965
744 965
745 965
746 965
747 965
748 965
749 965
750 965
751 965
752 965
753 965
754 965
755 965
756 965
757 965
758 965
759 965
760 965
761 965
762 965
763 965
764 965
765 965
766 965
767 965
768 965
769 965
770 965
771 965
772 965
773 965
774 965
775 965
776 965
777 965
778 965
779 965
780 965
781 965
782 965
783 965
784 965
785 965
786 965
787 965
788 965
789 965
790 965
791 965
792 965
793 965
794 965
795 965
796 965
797 965
798 965
799 965
800 965
801 965
802 965
803 965
804 965
805 965
806 965
807 965
808 965
809 965
810 965
811 965
812 965
813 965
814 965
815 965
816 965
817 965
818 965
819 965
820 965
821 965
822 965
823 965
824 965
825 965
826 965
827 965
828 965
829 965
830 965
831 965
832 965
833 965
834 965
835 965
836 965
837 965
838 965
839 965
840 965
841 965
842 965
843 965
844 965
845 965
846 965
847 965
848 965
849 965
850 965
851 965
852 965
853 965
854 965
855 965
856 965
857 965
858 965
859 965
860 965
861 965
862 965
863 965
864 965
865 965
866 965
867 965
868 965
869 965
870 965
871 965
872 965
873 965
874 965
875 965
876 965
877 965
878 965
879 965
880 965
881 965
882 965
883 965
884 965
885 965
886 965
887 965
888 965
889 965
890 965
891 965
892 965
893 965
894 965
895 965
896 965
897 965
898 965
899 965
900 965
901 965
902 965
903 965
904 965
905 965
906 965
907 965
908 965
909 965
910 965
911 965
912 965
913 965
914 965
915 965
916 965
917 965
918 965
919 965
920 965
921 965
922 965
923 965
924 965
925 965
926 965
927 965
928 965
929 965
930 965
931 965
932 965
933 965
934 965
935 965
936 965
937 965
938 965
939 965
940 965
941 965
942 965
943 965
944 965
945 965
946 965
947 965
948 965
949 965
950 965
951 965
952 965
953 965
954 965
955 965
956 965
957 965
958 965
959 965
960 965
961 965
962 965
963 965
964 965
965 965
966 965
967 965
968 965
969 965
970 965
971 965
972 965
973 965
974 965
975 965
976 965
977 965
978 965
979 965
980 965
981 965
982 965
983 965
984 965
985 965
986 965
987 965
988 965
989 965
990 965
991 965
992 965
993 965
994 965
995 965
996 965
997 965
998 965
999 965
Best: [[21,6,26,23,10,29,24],
       [25,27,31],
       [13,2,22,20,17],
       [7,4,3,18,32,14,8],
       [28,30,11,16,9,12,5,19,15]], fitness: 965
